n_res = 4;
rcap = [20, 22, 46, 46];
rtype = [1, 1, 2, 2];
n_tasks = 16;
modes = [ {1, 2, 3, 4, 5}, {6, 7, 8, 9, 10}, {11, 12, 13, 14, 15}, {16, 17, 18, 19, 20}, {21, 22, 23, 24, 25}, {26, 27, 28, 29, 30}, {31, 32, 33, 34, 35}, {36, 37, 38, 39, 40}, {41, 42, 43, 44, 45}, {46, 47, 48, 49, 50}, {51, 52, 53, 54, 55}, {56, 57, 58, 59, 60}, {61, 62, 63, 64, 65}, {66, 67, 68, 69, 70}, {71, 72, 73, 74, 75}, {76, 77, 78, 79, 80} ];
succ = [ {4, 5}, {5, 6, 13}, {14}, {6, 10, 13}, {7, 8, 9}, {8, 9}, {10, 11, 12}, {11}, {12, 16}, {15}, {14, 15, 16}, {14, 15}, {16}, {}, {}, {} ];
n_opt = 80;
dur = [1, 4, 6, 8, 10, 5, 6, 8, 9, 9, 1, 4, 4, 5, 7, 2, 4, 4, 4, 10, 1, 4, 7, 9, 10, 1, 2, 8, 9, 10, 1, 2, 3, 5, 7, 3, 6, 7, 9, 10, 3, 6, 6, 10, 10, 1, 6, 9, 10, 10, 2, 6, 9, 10, 10, 4, 4, 5, 7, 7, 3, 4, 9, 10, 10, 1, 2, 7, 7, 10, 1, 8, 8, 10, 10, 1, 3, 5, 6, 7];
rreq = [|  0,  0,  5,  0,  0,  0,  4,  3,  0,  3,  8,  0,  6,  0,  4,  3,  0,  3,  0,  0,  0,  2,  1,  1,  0,  0,  9,  9,  7,  0,  7,  0,  0,  7,  0,  0,  0,  7,  0,  0,  0,  0,  3,  0,  0,  9,  7,  0,  0,  0,  3,  0,  2,  1,  2,  0,  7,  7,  0,  7, 10,  8,  0,  0,  6,  9,  5,  0,  0,  4,  6,  6,  0,  0,  6, 10,  0,  0,  4,  0
        |  9,  9,  0,  8,  8,  9,  0,  0,  7,  0,  0,  5,  0,  5,  0,  0,  6,  0,  8,  1,  3,  0,  0,  0,  2,  3,  0,  0,  0,  3,  0,  7,  6,  0,  5,  5,  5,  0,  5,  4, 10,  9,  0,  9, 10,  0,  0, 10,  8,  7,  0,  6,  0,  0,  0, 10,  0,  0,  9,  0,  0,  0,  3,  3,  0,  0,  0,  6,  3,  0,  0,  0,  5,  2,  0,  0,  3,  2,  0,  2
        |  0,  5,  0,  5,  3,  9,  0,  7,  5,  6,  0,  0,  0,  8,  7,  0,  7,  7,  0,  0,  4,  4,  0,  0,  0,  6,  6,  0,  5,  0,  0,  0,  0,  6,  0,  0,  0,  0,  0,  0,  0,  0,  0,  2,  0,  6,  5,  0,  0,  4,  0,  7,  0,  0,  7,  8,  6,  4,  0,  0,  5,  0,  0,  5,  5,  0,  9,  0,  9,  7,  2,  0,  0,  0,  0,  0,  8,  7,  0,  0
        |  8,  0,  6,  0,  0,  0,  4,  0,  0,  0,  4,  1,  1,  0,  0,  5,  0,  0,  5,  5,  0,  0,  4,  2,  2,  0,  0,  4,  0,  4,  9,  9,  9,  0,  9, 10,  9,  8,  8,  8,  9,  5,  4,  0,  3,  0,  0,  8,  2,  0,  1,  0,  1,  1,  0,  0,  0,  0,  2,  4,  0,  2,  1,  0,  0,  3,  0,  2,  0,  0,  0,  4,  3,  1,  3,  5,  0,  0,  4,  2 |];
